\\ Objective function 
 
Maximize 

obj: sch_0 + sch_1 + sch_2 + sch_3
 
Subject To 
 
c0: 9 T_z0_5_0 + 7 T_z0_1_0 + 9 T_z0_5_1 + 4 T_z0_0_0 + 3 T_z0_6_0 + 9 T_z0_5_2 + 10 T_z0_3_0 + 8 T_z0_2_0 + 10 T_z0_3_1 + 9 T_z0_5_3 + 8 T_z0_2_1 + 4 T_z0_0_1 + 10 T_z0_4_0 + 8 T_z0_2_2 + 3 T_z0_6_1 + 10 T_z0_4_1 + 3 T_z0_6_2 + 8 T_z0_2_3 + 10 T_z0_3_2 + 7 T_z0_1_1 + 4 T_z0_0_2 + 10 T_z0_3_3- sch_0 >= 0
c1: T_z0_0_0 + T_z0_0_1 + T_z0_0_2 <= 1
c2: T_z0_1_0 + T_z0_1_1 <= 1
c3: T_z0_2_0 + T_z0_2_1 + T_z0_2_2 + T_z0_2_3 <= 1
c4: T_z0_3_0 + T_z0_3_1 + T_z0_3_2 + T_z0_3_3 <= 1
c5: T_z0_4_0 + T_z0_4_1 <= 1
c6: T_z0_5_0 + T_z0_5_1 + T_z0_5_2 + T_z0_5_3 <= 1
c7: T_z0_6_0 + T_z0_6_1 + T_z0_6_2 <= 1
c8: T_z0_5_0 + T_z0_1_0 - 2 T_g0_z0 = 0
c9: T_z0_5_1 + T_z0_0_0 - 2 T_g1_z0 = 0
c10: T_z0_6_0 + T_z0_5_2 - 2 T_g2_z0 = 0
c11: T_z0_3_0 + T_z0_2_0 - 2 T_g3_z0 = 0
c12: T_z0_3_1 + T_z0_5_3 - 2 T_g4_z0 = 0
c13: T_z0_2_1 + T_z0_0_1 - 2 T_g5_z0 = 0
c14: T_z0_4_0 + T_z0_2_2 - 2 T_g6_z0 = 0
c15: T_z0_6_1 + T_z0_4_1 - 2 T_g7_z0 = 0
c16: T_z0_6_2 + T_z0_2_3 - 2 T_g8_z0 = 0
c17: T_z0_3_2 + T_z0_1_1 - 2 T_g9_z0 = 0
c18: T_z0_0_2 + T_z0_3_3 - 2 T_g10_z0 = 0
c19: T_g0_z0 + T_g1_z0 + T_g2_z0 + T_g3_z0 + T_g4_z0 + T_g5_z0 + T_g6_z0 + T_g7_z0 + T_g8_z0 + T_g9_z0 + T_g10_z0 <= 3
c20: 9 T_z1_5_0 + 7 T_z1_1_0 + 9 T_z1_5_1 + 4 T_z1_0_0 + 3 T_z1_6_0 + 9 T_z1_5_2 + 10 T_z1_3_0 + 8 T_z1_2_0 + 10 T_z1_3_1 + 9 T_z1_5_3 + 8 T_z1_2_1 + 4 T_z1_0_1 + 10 T_z1_4_0 + 8 T_z1_2_2 + 3 T_z1_6_1 + 10 T_z1_4_1 + 3 T_z1_6_2 + 8 T_z1_2_3 + 10 T_z1_3_2 + 7 T_z1_1_1 + 4 T_z1_0_2 + 10 T_z1_3_3- sch_1 >= 0
c21: T_z1_0_0 + T_z1_0_1 + T_z1_0_2 <= 1
c22: T_z1_1_0 + T_z1_1_1 <= 1
c23: T_z1_2_0 + T_z1_2_1 + T_z1_2_2 + T_z1_2_3 <= 1
c24: T_z1_3_0 + T_z1_3_1 + T_z1_3_2 + T_z1_3_3 <= 1
c25: T_z1_4_0 + T_z1_4_1 <= 1
c26: T_z1_5_0 + T_z1_5_1 + T_z1_5_2 + T_z1_5_3 <= 1
c27: T_z1_6_0 + T_z1_6_1 + T_z1_6_2 <= 1
c28: T_z1_5_0 + T_z1_1_0 - 2 T_g0_z1 = 0
c29: T_z1_5_1 + T_z1_0_0 - 2 T_g1_z1 = 0
c30: T_z1_6_0 + T_z1_5_2 - 2 T_g2_z1 = 0
c31: T_z1_3_0 + T_z1_2_0 - 2 T_g3_z1 = 0
c32: T_z1_3_1 + T_z1_5_3 - 2 T_g4_z1 = 0
c33: T_z1_2_1 + T_z1_0_1 - 2 T_g5_z1 = 0
c34: T_z1_4_0 + T_z1_2_2 - 2 T_g6_z1 = 0
c35: T_z1_6_1 + T_z1_4_1 - 2 T_g7_z1 = 0
c36: T_z1_6_2 + T_z1_2_3 - 2 T_g8_z1 = 0
c37: T_z1_3_2 + T_z1_1_1 - 2 T_g9_z1 = 0
c38: T_z1_0_2 + T_z1_3_3 - 2 T_g10_z1 = 0
c39: T_g0_z1 + T_g1_z1 + T_g2_z1 + T_g3_z1 + T_g4_z1 + T_g5_z1 + T_g6_z1 + T_g7_z1 + T_g8_z1 + T_g9_z1 + T_g10_z1 <= 3
c40: 9 T_z2_5_0 + 7 T_z2_1_0 + 9 T_z2_5_1 + 4 T_z2_0_0 + 3 T_z2_6_0 + 9 T_z2_5_2 + 10 T_z2_3_0 + 8 T_z2_2_0 + 10 T_z2_3_1 + 9 T_z2_5_3 + 8 T_z2_2_1 + 4 T_z2_0_1 + 10 T_z2_4_0 + 8 T_z2_2_2 + 3 T_z2_6_1 + 10 T_z2_4_1 + 3 T_z2_6_2 + 8 T_z2_2_3 + 10 T_z2_3_2 + 7 T_z2_1_1 + 4 T_z2_0_2 + 10 T_z2_3_3- sch_2 >= 0
c41: T_z2_0_0 + T_z2_0_1 + T_z2_0_2 <= 1
c42: T_z2_1_0 + T_z2_1_1 <= 1
c43: T_z2_2_0 + T_z2_2_1 + T_z2_2_2 + T_z2_2_3 <= 1
c44: T_z2_3_0 + T_z2_3_1 + T_z2_3_2 + T_z2_3_3 <= 1
c45: T_z2_4_0 + T_z2_4_1 <= 1
c46: T_z2_5_0 + T_z2_5_1 + T_z2_5_2 + T_z2_5_3 <= 1
c47: T_z2_6_0 + T_z2_6_1 + T_z2_6_2 <= 1
c48: T_z2_5_0 + T_z2_1_0 - 2 T_g0_z2 = 0
c49: T_z2_5_1 + T_z2_0_0 - 2 T_g1_z2 = 0
c50: T_z2_6_0 + T_z2_5_2 - 2 T_g2_z2 = 0
c51: T_z2_3_0 + T_z2_2_0 - 2 T_g3_z2 = 0
c52: T_z2_3_1 + T_z2_5_3 - 2 T_g4_z2 = 0
c53: T_z2_2_1 + T_z2_0_1 - 2 T_g5_z2 = 0
c54: T_z2_4_0 + T_z2_2_2 - 2 T_g6_z2 = 0
c55: T_z2_6_1 + T_z2_4_1 - 2 T_g7_z2 = 0
c56: T_z2_6_2 + T_z2_2_3 - 2 T_g8_z2 = 0
c57: T_z2_3_2 + T_z2_1_1 - 2 T_g9_z2 = 0
c58: T_z2_0_2 + T_z2_3_3 - 2 T_g10_z2 = 0
c59: T_g0_z2 + T_g1_z2 + T_g2_z2 + T_g3_z2 + T_g4_z2 + T_g5_z2 + T_g6_z2 + T_g7_z2 + T_g8_z2 + T_g9_z2 + T_g10_z2 <= 3
c60: 9 T_z3_5_0 + 7 T_z3_1_0 + 9 T_z3_5_1 + 4 T_z3_0_0 + 3 T_z3_6_0 + 9 T_z3_5_2 + 10 T_z3_3_0 + 8 T_z3_2_0 + 10 T_z3_3_1 + 9 T_z3_5_3 + 8 T_z3_2_1 + 4 T_z3_0_1 + 10 T_z3_4_0 + 8 T_z3_2_2 + 3 T_z3_6_1 + 10 T_z3_4_1 + 3 T_z3_6_2 + 8 T_z3_2_3 + 10 T_z3_3_2 + 7 T_z3_1_1 + 4 T_z3_0_2 + 10 T_z3_3_3- sch_3 >= 0
c61: T_z3_0_0 + T_z3_0_1 + T_z3_0_2 <= 1
c62: T_z3_1_0 + T_z3_1_1 <= 1
c63: T_z3_2_0 + T_z3_2_1 + T_z3_2_2 + T_z3_2_3 <= 1
c64: T_z3_3_0 + T_z3_3_1 + T_z3_3_2 + T_z3_3_3 <= 1
c65: T_z3_4_0 + T_z3_4_1 <= 1
c66: T_z3_5_0 + T_z3_5_1 + T_z3_5_2 + T_z3_5_3 <= 1
c67: T_z3_6_0 + T_z3_6_1 + T_z3_6_2 <= 1
c68: T_z3_5_0 + T_z3_1_0 - 2 T_g0_z3 = 0
c69: T_z3_5_1 + T_z3_0_0 - 2 T_g1_z3 = 0
c70: T_z3_6_0 + T_z3_5_2 - 2 T_g2_z3 = 0
c71: T_z3_3_0 + T_z3_2_0 - 2 T_g3_z3 = 0
c72: T_z3_3_1 + T_z3_5_3 - 2 T_g4_z3 = 0
c73: T_z3_2_1 + T_z3_0_1 - 2 T_g5_z3 = 0
c74: T_z3_4_0 + T_z3_2_2 - 2 T_g6_z3 = 0
c75: T_z3_6_1 + T_z3_4_1 - 2 T_g7_z3 = 0
c76: T_z3_6_2 + T_z3_2_3 - 2 T_g8_z3 = 0
c77: T_z3_3_2 + T_z3_1_1 - 2 T_g9_z3 = 0
c78: T_z3_0_2 + T_z3_3_3 - 2 T_g10_z3 = 0
c79: T_g0_z3 + T_g1_z3 + T_g2_z3 + T_g3_z3 + T_g4_z3 + T_g5_z3 + T_g6_z3 + T_g7_z3 + T_g8_z3 + T_g9_z3 + T_g10_z3 <= 3
c80: T_g0_z0 + T_g0_z1 + T_g0_z2 + T_g0_z3 <= 1
c81: T_g1_z0 + T_g1_z1 + T_g1_z2 + T_g1_z3 <= 1
c82: T_g2_z0 + T_g2_z1 + T_g2_z2 + T_g2_z3 <= 1
c83: T_g3_z0 + T_g3_z1 + T_g3_z2 + T_g3_z3 <= 1
c84: T_g4_z0 + T_g4_z1 + T_g4_z2 + T_g4_z3 <= 1
c85: T_g5_z0 + T_g5_z1 + T_g5_z2 + T_g5_z3 <= 1
c86: T_g6_z0 + T_g6_z1 + T_g6_z2 + T_g6_z3 <= 1
c87: T_g7_z0 + T_g7_z1 + T_g7_z2 + T_g7_z3 <= 1
c88: T_g8_z0 + T_g8_z1 + T_g8_z2 + T_g8_z3 <= 1
c89: T_g9_z0 + T_g9_z1 + T_g9_z2 + T_g9_z3 <= 1
c90: T_g10_z0 + T_g10_z1 + T_g10_z2 + T_g10_z3 <= 1

Binary 
 
T_z0_0_0
T_z0_0_1
T_z0_0_2
T_z0_1_0
T_z0_1_1
T_z0_2_0
T_z0_2_1
T_z0_2_2
T_z0_2_3
T_z0_3_0
T_z0_3_1
T_z0_3_2
T_z0_3_3
T_z0_4_0
T_z0_4_1
T_z0_5_0
T_z0_5_1
T_z0_5_2
T_z0_5_3
T_z0_6_0
T_z0_6_1
T_z0_6_2
T_g0_z0
T_g1_z0
T_g2_z0
T_g3_z0
T_g4_z0
T_g5_z0
T_g6_z0
T_g7_z0
T_g8_z0
T_g9_z0
T_g10_z0
T_z1_0_0
T_z1_0_1
T_z1_0_2
T_z1_1_0
T_z1_1_1
T_z1_2_0
T_z1_2_1
T_z1_2_2
T_z1_2_3
T_z1_3_0
T_z1_3_1
T_z1_3_2
T_z1_3_3
T_z1_4_0
T_z1_4_1
T_z1_5_0
T_z1_5_1
T_z1_5_2
T_z1_5_3
T_z1_6_0
T_z1_6_1
T_z1_6_2
T_g0_z1
T_g1_z1
T_g2_z1
T_g3_z1
T_g4_z1
T_g5_z1
T_g6_z1
T_g7_z1
T_g8_z1
T_g9_z1
T_g10_z1
T_z2_0_0
T_z2_0_1
T_z2_0_2
T_z2_1_0
T_z2_1_1
T_z2_2_0
T_z2_2_1
T_z2_2_2
T_z2_2_3
T_z2_3_0
T_z2_3_1
T_z2_3_2
T_z2_3_3
T_z2_4_0
T_z2_4_1
T_z2_5_0
T_z2_5_1
T_z2_5_2
T_z2_5_3
T_z2_6_0
T_z2_6_1
T_z2_6_2
T_g0_z2
T_g1_z2
T_g2_z2
T_g3_z2
T_g4_z2
T_g5_z2
T_g6_z2
T_g7_z2
T_g8_z2
T_g9_z2
T_g10_z2
T_z3_0_0
T_z3_0_1
T_z3_0_2
T_z3_1_0
T_z3_1_1
T_z3_2_0
T_z3_2_1
T_z3_2_2
T_z3_2_3
T_z3_3_0
T_z3_3_1
T_z3_3_2
T_z3_3_3
T_z3_4_0
T_z3_4_1
T_z3_5_0
T_z3_5_1
T_z3_5_2
T_z3_5_3
T_z3_6_0
T_z3_6_1
T_z3_6_2
T_g0_z3
T_g1_z3
T_g2_z3
T_g3_z3
T_g4_z3
T_g5_z3
T_g6_z3
T_g7_z3
T_g8_z3
T_g9_z3
T_g10_z3
End 
